CMD:
./solvers/bin/cadical --plain --no-reduce -t 1600 ./data/cnfs//bobsm5378d2/bobsm5378d2.64.cnf

c --- [ banner ] -------------------------------------------------------------
c 
c CaDiCaL SAT Solver
c Copyright (c) 2016-2024
c A. Biere, M. Fleury, N. Froleyks, K. Fazekas, F. Pollitt, T. Faller
c JKU Linz, University of Freiburg, TU Wien
c 
c Version 2.1.3 5296d3d2a9bf48c154ab2acb5e44625776d821bf
c g++ (Gentoo 12.3.1_p20230526 p2) 12.3.1 20230526 -Wall -Wextra -O3 -DNDEBUG
c Sat Aug 9 07:26:21 PDT 2025 Linux cedar2.int.cedar.computecanada.ca 5.14.0-362.24.2.el9_3.x86_64 x86_64
c 
c --- [ limit ] --------------------------------------------------------------
c 
c setting time limit to 1600 seconds real time (due to '-t 1600')
c 
c --- [ parsing input ] ------------------------------------------------------
c 
c reading DIMACS file from './data/cnfs//bobsm5378d2/bobsm5378d2.64.cnf'
c opening file to read './data/cnfs//bobsm5378d2/bobsm5378d2.64.cnf'
c found 'p cnf 136951 403321' header
c parsed 403321 clauses in 0.07 seconds process time
c 
c --- [ options ] ------------------------------------------------------------
c 
c   --compact=false                (different from default 'true')
c   --decompose=false              (different from default 'true')
c   --deduplicate=false            (different from default 'true')
c   --elim=false                   (different from default 'true')
c   --probe=false                  (different from default 'true')
c   --reduce=false                 (different from default 'true')
c   --subsume=false                (different from default 'true')
c   --ternary=false                (different from default 'true')
c   --transred=false               (different from default 'true')
c   --vivify=false                 (different from default 'true')
c 
c --- [ solving ] ------------------------------------------------------------
c 
c time measured in process time since initialization
c 
c  seconds  reductions  redundant  irredundant
c         MB    restarts       trail       variables
c          level   conflicts       glue          remaining
c 
c *  0.07 65  0 0   0    0    0  0% 0 388593 117694 86%
c {  0.13 67  0 0   0    0    0  0% 0 388593 117694 86%
c i  0.14 67  1 0   0    1    0 15% 0 388593 117692 86%
c i  0.14 67  1 0   0    2    0 15% 0 388593 117688 86%
c i  0.14 67 81 0   1   54   45 19% 2 388593 117685 86%
c i  0.14 67 129 0   1   78   67 21% 2 388593 117684 86%
c i  0.15 67 150 0   1   92   79 22% 1 388593 117677 86%
c i  0.15 67 157 0   1   96   81 22% 1 388593 117675 86%
c i  0.15 67 159 0   1   99   83 22% 1 388593 117664 86%
c i  0.16 67 181 0   3  127  109 23% 2 388593 117633 86%
c i  0.17 67 199 0   5  141  120 24% 2 388593 117632 86%
c i  0.19 67 241 0   9  169  142 26% 2 388593 117625 86%
c i  0.19 67 245 0   9  171  143 26% 2 388593 117624 86%
c i  0.19 67 254 0   9  176  147 26% 2 388593 117622 86%
c i  0.19 67 266 0   9  183  152 27% 2 388593 117618 86%
c i  0.19 67 268 0   9  184  152 27% 2 388593 117611 86%
c i  0.19 67 267 0   9  195  160 27% 2 388593 117596 86%
c i  0.20 67 307 0   9  223  186 29% 2 388593 117590 86%
c i  0.20 67 339 0   9  244  204 30% 2 388593 117586 86%
c i  0.20 67 352 0   9  253  211 31% 2 388593 117585 86%
c 
c  seconds   reductions  redundant  irredundant
c         MB     restarts       trail       variables
c           level   conflicts       glue          remaining
c 
c i  0.20 67 366 0   9  262  217 31% 2 388593 117584 86%
c i  0.20 67 373 0   9  267  221 31% 2 388593 117576 86%
c i  0.21 67 406 0   9  293  240 33% 2 388593 117574 86%
c i  0.21 67 416 0   9  302  246 34% 2 388593 117559 86%
c i  0.21 67 418 0   9  304  247 34% 2 388593 117551 86%
c i  0.22 67 455 0   9  337  276 36% 2 388593 117548 86%
c i  0.22 67 465 0   9  344  282 36% 2 388593 117547 86%
c i  0.22 67 466 0   9  345  282 36% 2 388593 117544 86%
c i  0.22 67 478 0   9  354  289 37% 1 388593 117536 86%
c i  0.22 67 493 0   9  365  299 37% 1 388593 117528 86%
c i  0.22 67 510 0   9  378  308 38% 1 388593 117526 86%
c i  0.23 67 552 0   9  409  334 40% 1 388593 117524 86%
c i  0.23 67 565 0   9  419  342 41% 1 388593 117523 86%
c i  0.23 67 578 0   9  428  350 42% 1 388593 117515 86%
c i  0.24 67 591 0   9  438  358 42% 1 388593 117512 86%
c i  0.24 67 592 0   9  439  358 42% 1 388593 117506 86%
c i  0.24 67 594 0   9  440  358 42% 1 388593 117505 86%
c i  0.24 67 615 0   9  456  371 43% 1 388593 117502 86%
c i  0.25 67 694 0   9  538  444 48% 1 388593 117465 86%
c i  0.25 67 688 0  10  544  449 48% 1 388593 117443 86%
c 
c  seconds   reductions  redundant  irredundant
c         MB     restarts       trail       variables
c           level   conflicts       glue          remaining
c 
c i  0.37 67 663 0  25  604  507 48% 2 388593 117437 86%
c i  0.37 67 659 0  26  608  509 48% 2 388593 117428 86%
c i  0.42 67 634 0  38  650  544 47% 2 388593 117419 86%
c i  0.46 67 580 0  58  725  613 45% 2 388593 117389 86%
... skipped 169 lines ...
c           level     conflicts        glue           remaining
c 
c O 12.82 89 187 0 3191 55017 48268 34% 21 341927 116168 85%
c i 12.86 89 186 0 3192 55394 48620 34% 21 341927 116164 85%
c i 12.86 89 186 0 3192 55395 48620 34% 21 341927 116162 85%
c i 13.17 89 153 0 3196 62272 54119 31% 19 341927 116161 85%
c i 13.23 89 152 0 3197 62685 54446 31% 19 341927 116159 85%
c ] 13.32 89 155 0 3197 63001 54746 31% 19 341927 116159 85%
c { 13.32 89 103 0 3197 63001 54746 28% 5 341927 116159 85%
c i 13.54 89 102 0 3296 63375 55082 28% 5 341927 116157 85%
c i 13.88 89 98 0 3526 64482 56030 28% 5 341927 116151 85%
c i 13.91 89 98 0 3538 64532 56077 28% 5 341927 116147 85%
c i 13.93 89 98 0 3560 64617 56150 28% 5 341927 116145 85%
c B 14.26 89 95 0 3812 66018 57426 27% 5 341927 116145 85%
c i 14.78 89 90 0 4168 68467 59585 27% 5 341927 116142 85%
c i 15.09 89 88 0 4383 69687 60636 27% 5 341927 116140 85%
c i 15.42 89 84 0 4760 71706 62321 26% 5 341927 116134 85%
c i 15.69 89 82 0 4919 72965 63484 26% 5 341927 116122 85%
c i 16.15 89 80 0 5225 74417 64799 26% 5 341927 116121 85%
c W 16.83 92 74 0 5653 78019 67403 25% 6 341747 116121 85%
c i 17.41 92 70 0 6045 80579 69666 25% 6 341747 116093 85%
c i 17.48 92 70 0 6107 80939 69949 25% 6 341747 116073 85%
c 
c  seconds  reductions     redundant  irredundant
c         MB    restarts          trail       variables
c          level     conflicts        glue          remaining
c 
c i 17.75 92 67 0 6297 83130 71877 24% 6 341747 116067 85%
c i 17.88 92 65 0 6497 84225 72695 24% 6 341747 116033 85%
c i 17.89 92 65 0 6516 84358 72798 24% 6 341747 116027 85%
c i 17.99 92 65 0 6554 84952 73330 24% 6 341747 116020 85%
c i 17.99 92 65 0 6555 84955 73330 24% 6 341747 115986 85%
c i 18.04 92 65 0 6595 85111 73482 24% 6 341747 115976 85%
c i 18.12 92 64 0 6617 85925 74247 24% 6 341747 115942 85%
c i 18.17 92 64 0 6700 86258 74556 24% 6 341747 115908 85%
c i 18.18 92 64 0 6718 86343 74611 24% 6 341747 115894 85%
c i 18.44 92 61 0 6921 89317 77166 24% 6 341747 115860 85%
c # 18.67 92 59 0 7208 91023 78760 24% 6 341747 115860 85%
c i 18.99 92 57 0 7575 93872 81358 23% 6 341747 115858 85%
c i 19.24 92 54 0 7780 97210 84045 23% 6 341747 115765 85%
c i 19.27 92 53 0 7780 97800 84432 23% 6 341747 114041 83%
c i 19.28 92 53 0 7780 97906 84509 23% 6 341747 112520 82%
c i 19.28 92 53 0 7780 97913 84509 23% 6 341747 112471 82%
c i 19.28 92 53 0 7780 97915 84510 23% 6 341747 112337 82%
c } 19.28 92 53 0 7780 97917 84510 23% 6 341747 112072 82%
c 0 19.28 92 53 0 7780 97917 84510 23% 6 341747 112072 82%
c 
c --- [ result ] -------------------------------------------------------------
c 
s UNSATISFIABLE
c 
c --- [ run-time profiling ] -------------------------------------------------
c 
c process time taken by individual solving procedures
c (percentage relative to process time for solving)
c 
c        19.21  100.00% search
c        14.23   74.06% unstable
c         4.43   23.07% stable
c         0.49    2.54% walk
c         0.07    0.37% parse
c         0.06    0.33% lucky
c         0.00    0.00% simplify
c   =================================
c        19.21   99.63% solve
c 
c last line shows process time for solving
c (percentage relative to total process time)
c 
c --- [ statistics ] ---------------------------------------------------------
c 
c chronological:             28236        28.84 %  of conflicts
c conflicts:                 97917      5097.73    per second
c decisions:                609460     31729.55    per second
c fixed:                     24879        18.17 %  of all variables
c learned:                   95390        97.42 %  per conflict
c learned_lits:            3692947       100.00 %  learned literals
c minimized:                     0         0.00 %  learned literals
c shrunken:                1092858        29.59 %  learned literals
c minishrunken:             586430        15.88 %  learned literals
c otfs:                        734         0.75 %  of conflict
c propagations:          161671659         8.42 M  per second
c rephased:                     13      7532.08    interval
c restarts:                   7780        12.59    interval
c stabilizing:                   3        42.87 %  of conflicts
c subsumed:                   9603         1.98 %  of all clauses
c strengthened:                700         0.14 %  of all clauses
c walked:                        3     32639.00    interval
c 
c seconds are measured in process time for solving
c 
c --- [ resources ] ----------------------------------------------------------
c 
c total process time since initialization:        19.28    seconds
c total real time since initialization:           19.37    seconds
c maximum resident set size of process:          107.18    MB
c 
c --- [ shutting down ] ------------------------------------------------------
c 
c exit 20
